objective value:                                 7885
t_X001E31                                           1 	(obj:-48)
t_X001J45                                           1 	(obj:-53)
t_X001L01                                           1 	(obj:165)
t_X002J34                                           1 	(obj:-53)
t_X002M21                                           1 	(obj:-56)
t_X002O01                                           1 	(obj:174)
t_X003J07                                           1 	(obj:-53)
t_X003N25                                           1 	(obj:-57)
t_X003Q01                                           1 	(obj:180)
t_X004D01                                           1 	(obj:-47)
t_X004H15                                           1 	(obj:-51)
t_X004L07                                           1 	(obj:165)
t_X005E07                                           1 	(obj:-48)
t_X005I25                                           1 	(obj:-52)
t_X005L01                                           1 	(obj:165)
t_X006F01                                           1 	(obj:-49)
t_X006H21                                           1 	(obj:-51)
t_X006K34                                           1 	(obj:162)
t_X007Q01                                           1 	(obj:-60)
t_X007T20                                           1 	(obj:-63)
t_X007X31                                           1 	(obj:201)
t_X008K01                                           1 	(obj:-54)
t_X008O15                                           1 	(obj:-58)
t_X008T07                                           1 	(obj:189)
t_X009E27                                           1 	(obj:-48)
t_X009N20                                           1 	(obj:-57)
t_X009Q31                                           1 	(obj:180)
t_X010C31                                           1 	(obj:-46)
t_X010L33                                           1 	(obj:-55)
t_X010N27                                           1 	(obj:171)
t_X011L02                                           1 	(obj:-55)
t_X011N36                                           1 	(obj:-57)
t_X011O01                                           1 	(obj:174)
t_X012J01                                           1 	(obj:-53)
t_X012L03                                           1 	(obj:-55)
t_X012N02                                           1 	(obj:171)
t_X013N01                                           1 	(obj:-57)
t_X013Q14                                           1 	(obj:-60)
t_X013S04                                           1 	(obj:186)
t_X014W04                                           1 	(obj:-66)
t_X014Y39                                           1 	(obj:-68)
t_X014b01                                           1 	(obj:213)
t_X015G01                                           1 	(obj:-50)
t_X015I03                                           1 	(obj:-52)
t_X015K02                                           1 	(obj:162)
t_X016M02                                           1 	(obj:-56)
t_X016P36                                           1 	(obj:-59)
t_X016Q01                                           1 	(obj:180)
t_X017H01                                           1 	(obj:-51)
t_X017K21                                           1 	(obj:-54)
t_X017O34                                           1 	(obj:174)
t_X018U34                                           1 	(obj:-64)
t_X018Z21                                           1 	(obj:-69)
t_X018b01                                           1 	(obj:213)
t_X019E04                                           1 	(obj:-48)
t_X019G40                                           1 	(obj:-50)
t_X019I42                                           1 	(obj:156)
t_X020F42                                           1 	(obj:-98)
t_X020I04                                           1 	(obj:156)
t_X021N42                                           1 	(obj:-114)
t_X021R04                                           1 	(obj:183)
t_X022I01                                           1 	(obj:-52)
t_X022N24                                           1 	(obj:-57)
t_X022R19                                           1 	(obj:183)
t_X023L01                                           1 	(obj:-55)
t_X023V24                                           1 	(obj:-65)
t_X023Z19                                           1 	(obj:207)
t_X024A01                                           1 	(obj:-44)
t_X024F17                                           1 	(obj:-49)
t_X024I11                                           1 	(obj:156)
t_X025S23                                           1 	(obj:-62)
t_X025W28                                           1 	(obj:-66)
t_X025b01                                           1 	(obj:213)
t_X026T01                                           1 	(obj:-63)
t_X026Y12                                           1 	(obj:-68)
t_X026b23                                           1 	(obj:213)
t_X027A01                                           1 	(obj:-44)
t_X027F12                                           1 	(obj:-49)
t_X027I23                                           1 	(obj:156)
t_X028T11                                           1 	(obj:-63)
t_X028a30                                           1 	(obj:-70)
t_X028b01                                           1 	(obj:213)
t_X029I19                                           1 	(obj:-52)
t_X029P26                                           1 	(obj:-59)
t_X029R01                                           1 	(obj:183)
t_X030T01                                           1 	(obj:-63)
t_X030Y17                                           1 	(obj:-68)
t_X030b11                                           1 	(obj:213)
t_X031B11                                           1 	(obj:-45)
t_X031I30                                           1 	(obj:-52)
t_X031J01                                           1 	(obj:159)
t_X032H11                                           1 	(obj:-51)
t_X032O30                                           1 	(obj:-58)
t_X032P01                                           1 	(obj:177)
t_X033B07                                           1 	(obj:-45)
t_X033F25                                           1 	(obj:-49)
t_X033I01                                           1 	(obj:156)
t_X034M01                                           1 	(obj:-56)
t_X034Q15                                           1 	(obj:-60)
t_X034U07                                           1 	(obj:192)
t_X035J06                                           1 	(obj:-53)
t_X035L28                                           1 	(obj:-55)
t_X035Q01                                           1 	(obj:180)
t_X036M23                                           1 	(obj:-56)
t_X036Q28                                           1 	(obj:-60)
t_X036U01                                           1 	(obj:192)
t_X037T01                                           1 	(obj:-63)
t_X037Y17                                           1 	(obj:-68)
t_X037b11                                           1 	(obj:213)
t_X038Q01                                           1 	(obj:-60)
t_X038X35                                           1 	(obj:-67)
t_X038Z06                                           1 	(obj:207)
t_X039D29                                           1 	(obj:-47)
t_X039G26                                           1 	(obj:-50)
t_X039I01                                           1 	(obj:156)
t_X040H01                                           1 	(obj:-51)
t_X040M24                                           1 	(obj:-56)
t_X040Q19                                           1 	(obj:180)
t_X041G11                                           1 	(obj:-50)
t_X041N30                                           1 	(obj:-57)
t_X041P01                                           1 	(obj:177)
t_X042U31                                           1 	(obj:-64)
t_X042Z45                                           1 	(obj:-69)
t_X042b01                                           1 	(obj:213)
t_X043K29                                           1 	(obj:-54)
t_X043N26                                           1 	(obj:-57)
t_X043P01                                           1 	(obj:177)
t_X044C19                                           1 	(obj:-46)
t_X044J26                                           1 	(obj:-53)
t_X044L01                                           1 	(obj:165)
t_X045T01                                           1 	(obj:-63)
t_X045Y12                                           1 	(obj:-68)
t_X045b23                                           1 	(obj:213)
t_X046G23                                           1 	(obj:-50)
t_X046K28                                           1 	(obj:-54)
t_X046O01                                           1 	(obj:174)
t_X047G01                                           1 	(obj:-50)
t_X047J20                                           1 	(obj:-53)
t_X047N31                                           1 	(obj:171)
t_X048J19                                           1 	(obj:-53)
t_X048Q26                                           1 	(obj:-60)
t_X048S01                                           1 	(obj:186)
t_X049M34                                           1 	(obj:-56)
t_X049P21                                           1 	(obj:-59)
t_X049R01                                           1 	(obj:183)
t_X050C31                                           1 	(obj:-46)
t_X050H45                                           1 	(obj:-51)
t_X050J01                                           1 	(obj:159)
t_X051J31                                           1 	(obj:-53)
t_X051Z45                                           1 	(obj:-69)
t_X051b01                                           1 	(obj:213)
t_X052V29                                           1 	(obj:-65)
t_X052Y26                                           1 	(obj:-68)
t_X052a01                                           1 	(obj:210)
t_X053G01                                           1 	(obj:-50)
t_X053K15                                           1 	(obj:-54)
t_X053P07                                           1 	(obj:177)
t_X054G01                                           1 	(obj:-50)
t_X054L35                                           1 	(obj:-55)
t_X054M06                                           1 	(obj:168)
t_X055G01                                           1 	(obj:-50)
t_X055L12                                           1 	(obj:-55)
t_X055O23                                           1 	(obj:174)
t_X056N01                                           1 	(obj:-57)
t_X056S12                                           1 	(obj:-62)
t_X056U32                                           1 	(obj:192)
t_X057T07                                           1 	(obj:-63)
t_X057X25                                           1 	(obj:-67)
t_X057a01                                           1 	(obj:210)
t_X058G01                                           1 	(obj:-50)
t_X058I26                                           1 	(obj:-52)
t_X058L29                                           1 	(obj:165)
t_X059Q01                                           1 	(obj:-60)
t_X059a12                                           1 	(obj:-70)
t_X059b18                                           1 	(obj:213)
t_X060T01                                           1 	(obj:-63)
t_X060W20                                           1 	(obj:-66)
t_X060X31                                           1 	(obj:201)
t_X061H10                                           1 	(obj:-51)
t_X061M46                                           1 	(obj:-56)
t_X061O01                                           1 	(obj:174)
t_X062G01                                           1 	(obj:-50)
t_X062L09                                           1 	(obj:-55)
t_X062N10                                           1 	(obj:171)
t_X063N01                                           1 	(obj:-57)
t_X063S09                                           1 	(obj:-62)
t_X063U10                                           1 	(obj:192)
t_X064H32                                           1 	(obj:-51)
t_X064K28                                           1 	(obj:-54)
t_X064O01                                           1 	(obj:174)
t_X065F02                                           1 	(obj:-49)
t_X065H36                                           1 	(obj:-51)
t_X065I01                                           1 	(obj:156)
t_X066C06                                           1 	(obj:-46)
t_X066E28                                           1 	(obj:-48)
t_X066J01                                           1 	(obj:159)
t_X067X01                                           1 	(obj:-67)
t_X067Z03                                           1 	(obj:-69)
t_X067b02                                           1 	(obj:213)
t_X068S01                                           1 	(obj:-62)
t_X068U21                                           1 	(obj:-64)
t_X068X34                                           1 	(obj:201)
t_X069Y02                                           1 	(obj:-68)
t_X069a36                                           1 	(obj:-70)
t_X069b01                                           1 	(obj:213)
t_X070F04                                           1 	(obj:-49)
t_X070G39                                           1 	(obj:-50)
t_X070I01                                           1 	(obj:156)
t_X071M04                                           1 	(obj:-56)
t_X071N39                                           1 	(obj:-57)
t_X071P01                                           1 	(obj:177)
t_X072T06                                           1 	(obj:-63)
t_X072V28                                           1 	(obj:-65)
t_X072a01                                           1 	(obj:210)
t_X073S07                                           1 	(obj:-62)
t_X073X25                                           1 	(obj:-67)
t_X073a01                                           1 	(obj:210)
t_X074Y01                                           1 	(obj:-68)
t_X074a14                                           1 	(obj:-70)
t_X074b04                                           1 	(obj:213)
t_X075M01                                           1 	(obj:-56)
t_X075O03                                           1 	(obj:-58)
t_X075Q02                                           1 	(obj:180)
t_X076G01                                           1 	(obj:-50)
t_X076I14                                           1 	(obj:-52)
t_X076J04                                           1 	(obj:159)
t_X077A01                                           1 	(obj:-44)
t_X077F17                                           1 	(obj:-49)
t_X077I11                                           1 	(obj:156)
t_X078I18                                           1 	(obj:-52)
t_X078K28                                           1 	(obj:-54)
t_X078O01                                           1 	(obj:174)
t_X079E34                                           1 	(obj:-48)
t_X079H21                                           1 	(obj:-51)
t_X079J01                                           1 	(obj:159)
t_X080Y02                                           1 	(obj:-136)
t_X080b42                                           1 	(obj:213)
t_X081D42                                           1 	(obj:-47)
t_X081F16                                           1 	(obj:-49)
t_X081H02                                           1 	(obj:153)
t_X082L02                                           1 	(obj:-110)
t_X082O42                                           1 	(obj:174)
t_X083I42                                           1 	(obj:-52)
t_X083K16                                           1 	(obj:-54)
t_X083M02                                           1 	(obj:168)
t_X084B10                                           1 	(obj:-45)
t_X084G46                                           1 	(obj:-50)
t_X084I01                                           1 	(obj:156)
t_X085L01                                           1 	(obj:-55)
t_X085Q09                                           1 	(obj:-60)
t_X085S10                                           1 	(obj:186)
t_X086T10                                           1 	(obj:-63)
t_X086Y46                                           1 	(obj:-68)
t_X086a01                                           1 	(obj:210)
t_X087E01                                           1 	(obj:-48)
t_X087J09                                           1 	(obj:-53)
t_X087L10                                           1 	(obj:165)
t_X088A01                                           1 	(obj:-44)
t_X088F35                                           1 	(obj:-49)
t_X088G06                                           1 	(obj:150)
t_X089C06                                           1 	(obj:-46)
t_X089E28                                           1 	(obj:-48)
t_X089J01                                           1 	(obj:159)
t_X090M01                                           1 	(obj:-56)
t_X090R35                                           1 	(obj:-61)
t_X090S06                                           1 	(obj:186)
t_X091J06                                           1 	(obj:-53)
t_X091L28                                           1 	(obj:-55)
t_X091Q01                                           1 	(obj:180)
t_X092C42                                           1 	(obj:-46)
t_X092D16                                           1 	(obj:-47)
t_X092F02                                           1 	(obj:147)
t_X093I31                                           1 	(obj:-52)
t_X093S33                                           1 	(obj:-62)
t_X093U27                                           1 	(obj:192)
t_X094B27                                           1 	(obj:-45)
t_X094K20                                           1 	(obj:-54)
t_X094N31                                           1 	(obj:171)
t_X095U31                                           1 	(obj:-64)
t_X095Z45                                           1 	(obj:-69)
t_X095b01                                           1 	(obj:213)
t_X096E01                                           1 	(obj:-48)
t_X096I20                                           1 	(obj:-52)
t_X096L31                                           1 	(obj:165)
t_X097I18                                           1 	(obj:-52)
t_X097K28                                           1 	(obj:-54)
t_X097O01                                           1 	(obj:174)
t_X098D31                                           1 	(obj:-47)
t_X098I45                                           1 	(obj:-52)
t_X098K01                                           1 	(obj:162)
t_X099V18                                           1 	(obj:-65)
t_X099X28                                           1 	(obj:-67)
t_X099b01                                           1 	(obj:213)
t_X100D01                                           1 	(obj:-47)
t_X100I12                                           1 	(obj:-52)
t_X100J18                                           1 	(obj:159)
t_X101N01                                           1 	(obj:-57)
t_X101S12                                           1 	(obj:-62)
t_X101T18                                           1 	(obj:189)
t_X102U01                                           1 	(obj:-64)
t_X102Z12                                           1 	(obj:-69)
t_X102b32                                           1 	(obj:213)
t_X103T01                                           1 	(obj:-63)
t_X103X15                                           1 	(obj:-67)
t_X103b07                                           1 	(obj:213)
t_X104K01                                           1 	(obj:-54)
t_X104M14                                           1 	(obj:-56)
t_X104O04                                           1 	(obj:174)
t_X105P01                                           1 	(obj:-59)
t_X105R14                                           1 	(obj:-61)
t_X105T04                                           1 	(obj:189)
t_X106B01                                           1 	(obj:-45)
t_X106F12                                           1 	(obj:-49)
t_X106I32                                           1 	(obj:156)
t_X107L32                                           1 	(obj:-55)
t_X107O28                                           1 	(obj:-58)
t_X107T01                                           1 	(obj:189)
t_X108H04                                           1 	(obj:-51)
t_X108I39                                           1 	(obj:-52)
t_X108K01                                           1 	(obj:162)
t_X109N04                                           1 	(obj:-57)
t_X109O39                                           1 	(obj:-58)
t_X109Q01                                           1 	(obj:180)
t_X110U01                                           1 	(obj:-64)
t_X110Z12                                           1 	(obj:-69)
t_X110b32                                           1 	(obj:213)
t_X111A42                                           1 	(obj:-88)
t_X111D04                                           1 	(obj:141)
t_X112V42                                           1 	(obj:-130)
t_X112Y04                                           1 	(obj:204)
t_X113L04                                           1 	(obj:-55)
t_X113M40                                           1 	(obj:-56)
t_X113O42                                           1 	(obj:174)
t_X094E05                                           1 	(obj:0)
t_X009H05                                           1 	(obj:0)
t_X010D08                                           1 	(obj:0)
t_X050E08                                           1 	(obj:0)
t_X098F08                                           1 	(obj:0)
t_X001G08                                           1 	(obj:0)
t_X093K08                                           1 	(obj:0)
t_X051L08                                           1 	(obj:0)
t_X042W08                                           1 	(obj:0)
t_X095W08                                           1 	(obj:0)
t_X087I13                                           1 	(obj:0)
t_X062K13                                           1 	(obj:0)
t_X085P13                                           1 	(obj:0)
t_X063R13                                           1 	(obj:0)
t_X044E22                                           1 	(obj:0)
t_X029K22                                           1 	(obj:0)
t_X048L22                                           1 	(obj:0)
t_X040K25                                           1 	(obj:0)
t_X022L25                                           1 	(obj:0)
t_X023T25                                           1 	(obj:0)
t_X084D37                                           1 	(obj:0)
t_X061J37                                           1 	(obj:0)
t_X086V37                                           1 	(obj:0)
t_X044H38                                           1 	(obj:0)
t_X029N38                                           1 	(obj:0)
t_X048O38                                           1 	(obj:0)
t_X027C39                                           1 	(obj:0)
t_X088C39                                           1 	(obj:0)
t_X106C39                                           1 	(obj:0)
t_X100F39                                           1 	(obj:0)
t_X054I39                                           1 	(obj:0)
t_X055I39                                           1 	(obj:0)
t_X090O39                                           1 	(obj:0)
t_X056P39                                           1 	(obj:0)
t_X101P39                                           1 	(obj:0)
t_X038S39                                           1 	(obj:0)
t_X059S39                                           1 	(obj:0)
t_X026V39                                           1 	(obj:0)
t_X045V39                                           1 	(obj:0)
t_X102W39                                           1 	(obj:0)
t_X110W39                                           1 	(obj:0)
t_X010J41                                           1 	(obj:0)
t_X093Q41                                           1 	(obj:0)
t_X004F43                                           1 	(obj:0)
t_X053I43                                           1 	(obj:0)
t_X008M43                                           1 	(obj:0)
t_X034O43                                           1 	(obj:0)
t_X103V43                                           1 	(obj:0)
t_X094H44                                           1 	(obj:0)
t_X009K44                                           1 	(obj:0)
